(set-logic ALL)
(set-option :produce-models true)
(declare-sort BoundSet 0)
(declare-sort UnboundSet 0)
(set-option :finite-model-find true)
(declare-fun Drinks (BoundSet) Bool)
(declare-fun Parties (BoundSet) Bool)
(declare-fun HasMultiplePartners (BoundSet) Bool)
(declare-fun CannotBeTrusted (BoundSet) Bool)
(declare-fun IsHealthFood (BoundSet) Bool)
(assert (not (=> (exists ((a BoundSet)) (and (Drinks a) (and (Parties a) (HasMultiplePartners a)))) (exists ((a BoundSet)) (exists ((c BoundSet)) (and (CannotBeTrusted a) (not (IsHealthFood c))))))))
(check-sat)
(get-model)